;; Mutation-Based Equivalence Benchmark
;; Source:     AutomatArk / instance14763.smt2
;; Mutations:  range_shrink_hi, range_shrink_hi
;; Status:     sat
;;
;; Original regex vs mutated regex
;; Equivalence check: unsat ⟺ L(R1) = L(R2)

(set-info :smt-lib-version 2.6)
(set-info :category "mutation")
(set-info :status sat)
(set-logic QF_S)

(declare-const x String)

;; R1: original
;; R2: mutated (range_shrink_hi, range_shrink_hi)
(assert
  (str.in_re x
    (re.union (re.inter (re.++ (re.* (re.++ (re.+ (re.union (re.range "a" "z") (re.range "0" "9"))) (re.opt (re.++ (re.* (re.union (str.to_re "-") (re.range "a" "z") (re.range "0" "9"))) (re.+ (re.union (re.range "a" "z") (re.range "0" "9"))))) (str.to_re "."))) ((_ re.loop 1 63) (re.++ (re.+ (re.union (re.range "a" "z") (re.range "0" "9"))) (re.opt (re.++ (re.* (re.union (str.to_re "-") (re.range "a" "z") (re.range "0" "9"))) (re.+ (re.union (re.range "a" "z") (re.range "0" "9"))))))) (re.+ (re.++ (str.to_re ".") ((_ re.loop 2 7) (re.union (re.range "a" "z") (re.range "0" "9"))))) (str.to_re "\u{a}")) (re.comp (re.++ (re.* (re.++ (re.+ (re.union (re.range "a" "z") (re.range "0" "9"))) (re.opt (re.++ (re.* (re.union (str.to_re "-") (re.range "a" "z") (re.range "0" "9"))) (re.+ (re.union (re.range "a" "z") (re.range "0" "8"))))) (str.to_re "."))) ((_ re.loop 1 63) (re.++ (re.+ (re.union (re.range "a" "z") (re.range "0" "9"))) (re.opt (re.++ (re.* (re.union (str.to_re "-") (re.range "a" "z") (re.range "0" "8"))) (re.+ (re.union (re.range "a" "z") (re.range "0" "9"))))))) (re.+ (re.++ (str.to_re ".") ((_ re.loop 2 7) (re.union (re.range "a" "z") (re.range "0" "9"))))) (str.to_re "\u{a}")))) (re.inter (re.comp (re.++ (re.* (re.++ (re.+ (re.union (re.range "a" "z") (re.range "0" "9"))) (re.opt (re.++ (re.* (re.union (str.to_re "-") (re.range "a" "z") (re.range "0" "9"))) (re.+ (re.union (re.range "a" "z") (re.range "0" "9"))))) (str.to_re "."))) ((_ re.loop 1 63) (re.++ (re.+ (re.union (re.range "a" "z") (re.range "0" "9"))) (re.opt (re.++ (re.* (re.union (str.to_re "-") (re.range "a" "z") (re.range "0" "9"))) (re.+ (re.union (re.range "a" "z") (re.range "0" "9"))))))) (re.+ (re.++ (str.to_re ".") ((_ re.loop 2 7) (re.union (re.range "a" "z") (re.range "0" "9"))))) (str.to_re "\u{a}"))) (re.++ (re.* (re.++ (re.+ (re.union (re.range "a" "z") (re.range "0" "9"))) (re.opt (re.++ (re.* (re.union (str.to_re "-") (re.range "a" "z") (re.range "0" "9"))) (re.+ (re.union (re.range "a" "z") (re.range "0" "8"))))) (str.to_re "."))) ((_ re.loop 1 63) (re.++ (re.+ (re.union (re.range "a" "z") (re.range "0" "9"))) (re.opt (re.++ (re.* (re.union (str.to_re "-") (re.range "a" "z") (re.range "0" "8"))) (re.+ (re.union (re.range "a" "z") (re.range "0" "9"))))))) (re.+ (re.++ (str.to_re ".") ((_ re.loop 2 7) (re.union (re.range "a" "z") (re.range "0" "9"))))) (str.to_re "\u{a}"))))))

(check-sat)
(exit)
